10	5
0	5	2	4	1	5	3
1	1	6
2	2	6	10
3	2	8	6
4	2	10	7
5	1	7
6	1	9
7	1	11
8	1	11
9	1	11
10	1	11
11	0
0	0	0	0	0	0	0
1	10	1	4	3	4	4
2	7	2	2	3	5	4
3	10	3	1	2	1	1
4	7	2	2	3	3	2
5	2	1	2	1	3	3
6	5	3	1	2	1	5
7	6	4	2	1	4	4
8	1	4	5	2	4	2
9	10	4	4	2	4	4
10	10	3	4	4	5	5
11	0	0	0	0	0	0
8	8	8	9	8
